language ESSENCE' 1.0
$ Futoshiki instance, by Andras Salamon
$ specify the numbers in the grid
letting values be [[3, 0, 0, 0, 0], [0, 0, 0, 0, 0], [0, 0, 0, 0, 0], [0, 4, 0, 0, 0], [0, 0, 0, 0, 0]]
$ specify last index in array lt; lt[0] is first entry
letting lastdx be 4
$ [i1,j1,i2,j2] requires that values[i1,j1]<values[i2,j2]
letting lt be [[1, 3, 1, 4], [4, 5, 4, 3], [5, 3, 5, 4], [1, 5, 2, 5], [4, 1, 4, 3]]
